Si6 C6                                  
   1.00000000000000     
    18.5693039999999989    0.0000000000000000    0.0000000000000000
    -9.2846519999999995   16.0814880000000002    0.0000000000000000
     0.0000000000000000    0.0000000000000000   45.5535929999999993
   Si   C    H    O    Pd
   144   144    34    37     2
Direct
  0.0002548683459987  0.2514746260880553  0.4179725972201813
  0.0554971402346187  0.3633149147811945  0.3069037630762743
  0.1116467864717838  0.3118158560232389  0.4720095521353499
  0.1112406222524521  0.3069694023214989  0.3620830486543238
  0.1672201454704763  0.2518200848983180  0.4171196272136672
  0.2214530927875348  0.3608387686576870  0.3068764908883181
  0.2799825826971460  0.3131349643224248  0.4717466110625929
  0.2783995347059767  0.3065582991580282  0.3617976988959762
  0.3339004950563009  0.2514493414572516  0.4169969577513265
  0.3886580683442780  0.3623875340826105  0.3065767138449960
  0.4479053370913980  0.3152532763443956  0.4745105994453097
  0.4451598197909666  0.3072647525791529  0.3618701210113147
  0.0007345459396115  0.4184598723371901  0.4169087893003536
  0.0553886431966619  0.0300617434713273  0.3067530886377021
  0.1142598044173232  0.4813861391909487  0.4734741776194894
  0.1118092381970408  0.4740461776703064  0.3617647794396316
  0.1664741596859776  0.4176776858609033  0.4171383124013458
  0.2220284124416419  0.0279379257584438  0.3066823619337902
  0.2813600418938091  0.4844804113844178  0.4771825194204807
  0.2779013132917580  0.4729395956008091  0.3615786648701224
  0.3336483606403871  0.4178801589860330  0.4174514717923671
  0.3885844963500014  0.0301468923291393  0.3066489275061380
  0.4461822894223412  0.4830778372286201  0.4769057134638944
  0.4446388098558425  0.4734261140082714  0.3615904009622639
  0.0003074931936655  0.0843586602220512  0.4174323842026833
  0.0552443212032122  0.1965205016461285  0.3068141923522459
  0.1127080091266116  0.1495481441555281  0.4770721646441390
  0.1115308133896065  0.1406101242044624  0.3617283732959204
  0.1671401714247948  0.0851295138002307  0.4177509657688634
  0.2219772085565968  0.1943608742105482  0.3068067812245320
  0.2773684100675745  0.1460649956473591  0.4743610384275304
  0.2779975844174087  0.1396894611747286  0.3619379289215476
  0.3333074571068284  0.0845711458992635  0.4177112575429446
  0.3886182906440593  0.1964642922107466  0.3069550636437087
  0.4451328342752089  0.1451663859615487  0.4717201736045851
  0.4445835765248236  0.1402377324790531  0.3620436170737004
  0.4997791231032094  0.2506862781964819  0.4172893394194768
  0.5552324750688916  0.3606234546551679  0.3067600267193281
  0.6148239350279047  0.3182643314009247  0.4778864018431737
  0.6114561179804706  0.3063240999612560  0.3617841580612075
  0.6670147305632155  0.2509906388329893  0.4174478003195194
  0.7217851212622706  0.3627912658257560  0.3068015520393813
  0.7798794489814733  0.3167310153003773  0.4769090584493252
  0.7782063636226232  0.3071554252805987  0.3617080677227466
  0.8339430898018412  0.2519327704084933  0.4178909572703196
  0.8885948413100894  0.3608896156137937  0.3067146275745391
  0.9441807295784213  0.3132699227805060  0.4755365062866785
  0.9448070121892840  0.3064603558880005  0.3618879331116004
  0.5005930523628732  0.4185922782941594  0.4180159398862957
  0.5554457560330016  0.0278238043662604  0.3066411915814140
  0.6108327941612804  0.4796043350062568  0.4752992895654319
  0.6111686169153199  0.4727327973356280  0.3618673361315805
  0.6668998167438399  0.4180507651408220  0.4178562684157501
  0.7226919182225414  0.0304704375837627  0.3068209979993581
  0.7783966930382955  0.4788732439865529  0.4717090108118231
  0.7777863291531839  0.4734184853117382  0.3618990689521254
  0.8338288385663366  0.4184622129498573  0.4169213697282098
  0.8887054815818393  0.0276774413525913  0.3068536444827926
  0.9464432560238566  0.4796916975303291  0.4712843612538334
  0.9448543504201220  0.4731804279696700  0.3616187508107044
  0.5004597137046214  0.0848426078702478  0.4169871717397007
  0.5551121963516625  0.1941643268632823  0.3068952459614260
  0.6132151843200315  0.1461429927765506  0.4713886214343486
  0.6117596129313556  0.1398239043643622  0.3618298126539816
  0.6674685312858958  0.0849194765746692  0.4169080913693925
  0.7220215985191677  0.1965213753233592  0.3067083707962329
  0.7810953874263746  0.1479880423696484  0.4738529996132635
  0.7786707923577958  0.1408701897675395  0.3617979381759030
  0.8330409076953088  0.0840972524035803  0.4170657658365107
  0.8889063787155580  0.1945005091430276  0.3067455932579167
  0.9482725046959145  0.1515246489823607  0.4777992740576049
  0.9448755079006620  0.1398623796886343  0.3617467499217178
  0.9999514859327404  0.7513209849757565  0.4172833705414504
  0.0555139528260989  0.8633124157621834  0.3065072149377294
  0.1115713713089316  0.8120710073329782  0.4712689392439609
  0.1111405527426927  0.8068930271004755  0.3615474583462116
  0.1669805562440810  0.7516502294203771  0.4166042921529930
  0.2218335336764307  0.8613047191683774  0.3064957600772807
  0.2796824381659160  0.8127892478162591  0.4708558443372255
  0.2783322570265049  0.8066092457668935  0.3614161019644900
  0.3343661064353166  0.7518372347833098  0.4163281798332692
  0.3884584987619306  0.8638556568073706  0.3060655025010563
  0.4476045429144677  0.8142758577423646  0.4721197784208470
  0.4454276556063559  0.8074057482485123  0.3608436228124903
  0.0006343718097930  0.9181061889866199  0.4167986046542549
  0.0551583019851078  0.5294866657185904  0.3065556607913361
  0.1146352916348864  0.9817379665538447  0.4742029493862062
  0.1117997674657405  0.9741092504127262  0.3616225326300815
  0.1663185005689814  0.9173706921122995  0.4169274506969692
  0.2216546074062074  0.5270810590743202  0.3062120921485307
  0.2818118947430674  0.9850276861532723  0.4777401284794218
  0.2781055848361788  0.9731518434542484  0.3615274353754734
  0.3335524512974033  0.9175793003933639  0.4171019204957229
  0.3875837296679740  0.5262060003789839  0.3055537057291444
  0.4471016208742957  0.9837939591922421  0.4770630655007306
  0.4448041217588961  0.9738811473074593  0.3613883933612907
  0.0001153560006164  0.5845462068026684  0.4171137369063063
  0.0553493343295879  0.6962933201892346  0.3059182245194406
  0.1133280148667997  0.6502831566583633  0.4767604127755641
  0.1111622378563820  0.6402963381574196  0.3615249059199973
  0.1672305238209884  0.5853500493833668  0.4177380969747814
  0.2205649283821764  0.6940528716315185  0.3067410874976130
  0.2776101023650299  0.6469533977053039  0.4755276306483845
  0.2775618732641323  0.6395444108222084  0.3615700810573313
  0.3337138772299295  0.5849956857634699  0.4173862804244820
  0.3864347452753987  0.6965408418676748  0.3059766712492828
  0.4447874334524013  0.6453550402836594  0.4713380694489750
  0.4439559014522924  0.6396118520939899  0.3608352447642445
  0.4996774310971597  0.7507985684153530  0.4162161207151653
  0.5575038315751668  0.8620140005749132  0.3062641877791837
  0.6150895745490206  0.8176077712420872  0.4767937624816162
  0.6115886657042818  0.8062997924510397  0.3610959985170604
  0.6669226896046259  0.7510198787188949  0.4169464958184245
  0.7223386672636212  0.8629756838421153  0.3063321665670050
  0.7798565132031849  0.8168390022750165  0.4770482340004936
  0.7781198906657629  0.8069545446729790  0.3609876383752482
  0.8337771912516194  0.7518160941306307  0.4172641885297724
  0.8894443151826108  0.8614653829514323  0.3062712615000418
  0.9441676148788987  0.8133166224206416  0.4745183564736172
  0.9446779831510878  0.8064304839037236  0.3614947505029543
  0.5005787514242119  0.9183291275336496  0.4171173499124013
  0.5550905406513087  0.5270620191089481  0.3064546390097023
  0.6110847104656862  0.9803386161407418  0.4750711493882582
  0.6116929682074026  0.9732454213750429  0.3615962039306881
  0.6667317346878477  0.9179900683340197  0.4174018552520944
  0.7216701369540146  0.5292468772056572  0.3068665940865610
  0.7779001674646169  0.9784536633874512  0.4714887290229200
  0.7779729332298451  0.9735992338933174  0.3618130842085950
  0.8336381956397119  0.9182340438955146  0.4167929813245887
  0.8878648527164503  0.5272304803458776  0.3064306646068418
  0.9465222435445176  0.9794852259674687  0.4712818288984933
  0.9450835269352053  0.9732365914711739  0.3617718755356221
  0.5001588527985007  0.5851978507993191  0.4165757941224816
  0.5556066964495873  0.6938139292621597  0.3053061476344088
  0.6128692653669541  0.6460514990294792  0.4710511035358037
  0.6110750860169584  0.6395199465165886  0.3614465357818856
  0.6671715388974817  0.5847830478483442  0.4167044055388622
  0.7207196121999826  0.6945972820571199  0.3060002646949974
  0.7809760901832894  0.6479372218538695  0.4730040443141545
  0.7778943790183982  0.6404585762260548  0.3614586133347986
  0.8330911713480851  0.5842813307698961  0.4167638236868617
  0.8880048026109040  0.6949589239596984  0.3059431413989862
  0.9482940435960755  0.6513779489499564  0.4771581463526435
  0.9444076735410687  0.6398688404198649  0.3609278069758123
  0.9995200046659336  0.7502357696841795  0.3752809046762092
  0.1111818284628565  0.8068071610230002  0.4292879126251862
  0.0570613586200903  0.8691940078351744  0.4801755376947863
  0.1110669360443218  0.8074636019730902  0.3198944465359957
  0.1669055191838573  0.7510895476533416  0.3749434377802552
  0.2780827449285614  0.8068152532457937  0.4288481679763795
  0.2251536493382347  0.8714762925472934  0.4782749963166725
  0.2780415043538886  0.8061320776247575  0.3198045501551520
  0.3343088793112009  0.7511202264136907  0.3746097187216838
  0.4449045023675962  0.8070663250073840  0.4293357947713722
  0.3912042863843823  0.8706209760819111  0.4795872274193206
  0.4456451120748667  0.8086612914830890  0.3186915582814265
  0.0007956951214858  0.9176461926650007  0.3751362674531108
  0.1111856232515604  0.9732136834096431  0.4303983430712018
  0.0575430579583873  0.5373438061638052  0.4804435419592924
  0.1114872920993340  0.9746696763859176  0.3200871513964612
  0.1672760182362331  0.9183792420160872  0.3751681332975099
  0.2766137724394653  0.9712713989035396  0.4311818936068991
  0.2229687622064772  0.5370200547179050  0.4843059358453581
  0.2779785794723494  0.9726770612900618  0.3200070297086338
  0.3340214219585975  0.9182070587012655  0.3752015069263115
  0.4444474766646701  0.9727366569896201  0.4309008954231628
  0.3915822377656206  0.5391980151235500  0.4851641185961875
  0.4446277701943821  0.9744481827050325  0.3198295911976097
  0.0002085753007999  0.5849964775283737  0.3751526368522320
  0.1111596077123555  0.6401398453911193  0.4309954297650918
  0.0584703073423617  0.7060187110955157  0.4851746117354624
  0.1104163748885080  0.6403299702827860  0.3202007380354484
  0.1669424139118301  0.5852204033407172  0.3757445043750285
  0.2793528706251353  0.6415952228037586  0.4306992934867057
  0.2245060853420737  0.7053027510608919  0.4833103994266132
  0.2764612693841091  0.6389705178794208  0.3202285837190550
  0.3328913398397224  0.5838425533486523  0.3753443973074412
  0.4448847448434514  0.6407952164754929  0.4292798686222384
  0.3904399581273755  0.7026757317104375  0.4802142701665186
  0.4431311675320480  0.6396112515653679  0.3187433138097467
  0.5005019203273547  0.7513413023863992  0.3743792643642390
  0.6099675577609187  0.8049835640754606  0.4306774936050978
  0.5562643741463699  0.8698641574150515  0.4833461906018836
  0.6116579490494761  0.8057409507145787  0.3196825724767523
  0.6673975715461985  0.7514630849231769  0.3750131964374268
  0.7777564483709248  0.8063737095162775  0.4309061956512569
  0.7249242661478420  0.8723645470165716  0.4853662104555505
  0.7780172532468486  0.8068975624758562  0.3191525698490232
  0.8335739408221517  0.7518136812582267  0.3752610477273155
  0.9452757061732677  0.8076573523846071  0.4305005741897873
  0.8911229207778748  0.8714448467304602  0.4831611050033791
  0.9447789347992032  0.8059483462603962  0.3199849189903665
  0.5005593625979857  0.9184521470358750  0.3750624667281978
  0.6119738030558702  0.9742378686164682  0.4306299106600294
  0.5576307590404013  0.5380003125943804  0.4830068629874997
  0.6117614056277259  0.9728902966686924  0.3200087597532085
  0.6663001811432485  0.9169406898646707  0.3754244871279253
  0.7779117485425130  0.9735280509905809  0.4294833930986295
  0.7237730405311783  0.5359421925795543  0.4803904855376787
  0.7778994763894135  0.9741522638429473  0.3201811760987454
  0.8334189721047363  0.9173651172831879  0.3750288377415681
  0.9446591312739065  0.9735409935689396  0.4292115446512688
  0.8916973224997430  0.5379362734190373  0.4787189931220406
  0.9447672641819498  0.9727384329035438  0.3202154422438847
  0.4996975332177567  0.5842587480917687  0.3748775631674823
  0.6111716526349897  0.6403097622220263  0.4289558280419526
  0.5581375673735985  0.7041199840360611  0.4784993420452817
  0.6105159949441318  0.6384297270907699  0.3201540890207120
  0.6669030439318916  0.5840376384702126  0.3751193097890156
  0.7779255038271955  0.6402926758567165  0.4298368719426893
  0.7240990291389452  0.7038068949538752  0.4800141365345255
  0.7775028482209069  0.6406000137734447  0.3200744362161428
  0.8338862000815389  0.5850880881733661  0.3750232401051675
  0.9434152952585599  0.6385477826706372  0.4309902963627215
  0.8896801935079457  0.7036366590846947  0.4840836264509741
  0.9439691596684204  0.6393381323050629  0.3190183979358512
  0.9996369885605549  0.2503579796329166  0.3759251301898747
  0.1115686472102216  0.3071872928200927  0.4298858447812743
  0.0571630950350700  0.3691979129666346  0.4805718364725802
  0.1107159973892350  0.3071657272016787  0.3205038839045559
  0.1670272698672728  0.2511090732565879  0.3754184009119639
  0.2781956271058297  0.3071302114846292  0.4295367106343135
  0.2248800752871357  0.3710146780410168  0.4790643260387114
  0.2779119918616174  0.3056815895539418  0.3201719521736888
  0.3340885286130556  0.2510026359270308  0.3753531457887267
  0.4444311840219925  0.3064467318750934  0.4306314579259681
  0.3907350891874831  0.3704709915609926  0.4811719844948162
  0.4447807291313915  0.3073255909752398  0.3203416088201689
  0.0006011062450229  0.4177046536954669  0.3752580995832340
  0.1112853691225700  0.4737555458106300  0.4302405322760638
  0.0571633595089918  0.0368287862789413  0.4808845610788534
  0.1109626024062646  0.4741316105064421  0.3203127669587951
  0.1672067440095626  0.4183715002438399  0.3754761658035077
  0.2770485874258750  0.4722340668573275  0.4311305156769803
  0.2234530215058208  0.0372788976662984  0.4849484687822102
  0.2773216602795839  0.4717313982123090  0.3203486376945696
  0.3339019537491865  0.4181066170619637  0.3755478329091748
  0.4448616346971915  0.4738749100902787  0.4311541109020510
  0.3920135034167251  0.0390709020041275  0.4855181127619963
  0.4446928957369190  0.4728436406172254  0.3202007407845391
  0.0007124357629635  0.0849276768033279  0.3755319062208446
  0.1113949284291926  0.1400910944155036  0.4312522537182638
  0.0583249144906311  0.2055816663308502  0.4857351624084975
  0.1112686908971193  0.1409492302076052  0.3201621445041098
  0.1669200145148216  0.0850040423249850  0.3757246647748749
  0.2787436985888875  0.1411250552162644  0.4306981472747818
  0.2242768696064459  0.2043465304097970  0.4828963232282625
  0.2778884685080950  0.1390150699740746  0.3203391627534842
  0.3329897249571751  0.0835336088270013  0.3757377580901441
  0.4445952094703286  0.1400161300399685  0.4296687898970676
  0.3904523818917121  0.2025089568922476  0.4800551750568963
  0.4444172664551863  0.1408174882249864  0.3203995170607357
  0.5006984620689990  0.2516111148936610  0.3755436303621497
  0.6101923542089341  0.3048369450570849  0.4314443620534852
  0.5564370050627032  0.3705040515472861  0.4853413499574526
  0.6112313783876872  0.3054372578962424  0.3202473970632835
  0.6674096505480017  0.2514687039163698  0.3755364169725269
  0.7780182185739765  0.3068020521600632  0.4312253278235402
  0.7252093241895661  0.3726203507045882  0.4853871544469462
  0.7778966990017575  0.3073117931690657  0.3201439992577896
  0.8338660390007617  0.2518902289418400  0.3758070152966065
  0.9457871244955318  0.3081697447125271  0.4310769070633141
  0.8911219464479770  0.3717610780938824  0.4833176210121867
  0.9445815205469937  0.3056501216103283  0.3202459572888816
  0.5003342937820039  0.4182104612360337  0.3759408983074150
  0.6125038165027061  0.4747395970117488  0.4309970472665012
  0.5581088571901787  0.0384609818774409  0.4835770268192667
  0.6110751969871472  0.4717379476050587  0.3203567504683099
  0.6663166839765736  0.4168393583968855  0.3758522432733189
  0.7782209596777335  0.4738785073358948  0.4296133944274749
  0.7237693182455581  0.0358011298552792  0.4806072763887230
  0.7774796651122137  0.4736371770974546  0.3203558638079739
  0.8335387534371934  0.4176562343865737  0.3752674468108716
  0.9448382060504787  0.4739448242609353  0.4292331890127081
  0.8915714465340842  0.0379921864254193  0.4784020858281361
  0.9442963189908425  0.4724204276161071  0.3199858466519778
  0.5002444269198542  0.0841944534330773  0.3752632187321899
  0.6114744618390784  0.1402424431492237  0.4293329317346192
  0.5585017771123078  0.2047284744562189  0.4787399006200803
  0.6113486864246009  0.1391145086313388  0.3201691978940260
  0.6674814859168287  0.0842552133785675  0.3752091407022120
  0.7779826379972391  0.1401719243775123  0.4303750812185855
  0.7242385057205779  0.2038621501668699  0.4806240668330562
  0.7783275639899037  0.1414281235608734  0.3201968835721135
  0.8340400666636368  0.0850623045255211  0.3753346096123738
  0.9433402293890967  0.1380771221330456  0.4313724418714158
  0.8897035086952970  0.2036511224312610  0.4848703413391342
  0.9446095670325330  0.1390852205771666  0.3201680973763827
  0.2679586327983361  0.8622917666769943  0.2612446221237893
  0.4310626625239713  0.9137894500878641  0.2608361477974923
  0.6228301486907051  0.8775838641756583  0.2635580053925360
  0.2645319492349608  0.7027709029942187  0.2603862949809325
  0.7706093242036415  0.9129407700421887  0.2616374817524751
  0.9467923568387702  0.8759201515155267  0.2622779224364952
  0.1030753251327088  0.9124665717497129  0.2617085969500880
  0.7647072945769350  0.5749880671276285  0.2612674407448956
  0.9297566403697707  0.5316145652479333  0.2599448360804594
  0.0983943400509373  0.5773149054906574  0.2612957151058591
  0.6698484367571808  0.6952556674419277  0.2620018122517666
  0.8677616711921510  0.7303658849784548  0.2610318826363279
  0.1035050938153957  0.7430521757533821  0.2609506842673033
  0.2641642531061068  0.3640592943362227  0.2607561768173420
  0.4308529455332406  0.4114268890869237  0.2614314813476795
  0.5994580956399264  0.3560488208107582  0.2616143136833954
  0.2664264174920696  0.0254360122097294  0.2613171463736114
  0.4328516547529419  0.0796810165996601  0.2615823657401404
  0.5996724418607278  0.0253058655064833  0.2611937024537848
  0.2659352417782712  0.1916227547457272  0.2613705210656883
  0.4318475729189158  0.2450590091196302  0.2617180306287915
  0.5986400445545638  0.1905826044055868  0.2614847414233077
  0.7653155419551314  0.4105991233232593  0.2615394421993279
  0.9327227269194414  0.3590462377854399  0.2612096999933103
  0.1008405232077094  0.4100529191489080  0.2616065130515715
  0.7678580392744611  0.0789732959523858  0.2617123234536325
  0.9327495910406102  0.0247760447441045  0.2614680153800509
  0.0992460916394712  0.0771440302140350  0.2613731866575312
  0.7655277918913400  0.2439058697801397  0.2613789206030748
  0.9330462553036726  0.1913887771352626  0.2614234327605652
  0.0995818429709019  0.2443798098377781  0.2616649987911734
  0.6006702234979296  0.5203676022071715  0.2619516786304799
   0.48109062   0.65913208   0.20124103
    0.54632026   0.75224555   0.19730102
  0.2118335842558280  0.3504926081025196  0.2705012406802640
  0.3835530811872077  0.3618809210612421  0.2700915653956203
  0.5490749472791551  0.3518060483300586  0.2702861633415967
  0.2159911667130691  0.0206563923726017  0.2701398073193875
  0.3828261958300397  0.0326852909156426  0.2701185329519594
  0.5490113808746531  0.0197521420043415  0.2700986266524079
  0.2151155836967527  0.1854908544585729  0.2703383345170904
  0.3823856294402296  0.1978367855689067  0.2704361212268455
  0.5482733374711610  0.1858294655206045  0.2703680945153556
  0.7154527248305125  0.3638371547663689  0.2702862928891903
  0.8816604523278945  0.3521018371533353  0.2702480684068826
  0.0496378790777439  0.3650655748962191  0.2703912675972518
  0.7170890249067919  0.0328728461564507  0.2702541735332700
  0.8821332369829004  0.0196637290177562  0.2702794661388300
  0.0486311483417811  0.0316582207645449  0.2702043697198200
  0.7153626812565936  0.1977643262055905  0.2701850764725989
  0.8823628643548140  0.1861724665828841  0.2702209642871705
  0.0489616578989739  0.1982493659714491  0.2703006830784140
  0.2166810369359202  0.8557972882122425  0.2699585225336373
  0.3812561930310572  0.8671419297282679  0.2695885409611349
  0.5654332578997987  0.8639375332220742  0.2690070181550209
  0.2178281195998843  0.5199918425648213  0.2700436700100792
  0.2119812254931591  0.6878207887400033  0.2702391035654524
  0.7178591961804732  0.8684589937125167  0.2697172437222367
  0.8904970094595823  0.8577163887945102  0.2697300928813287
  0.0512428119652477  0.8674339870055654  0.2700488925289818
  0.7154102255256815  0.5285572634863431  0.2703390266327645
  0.8779461190409509  0.5178049680782747  0.2700965802460421
  0.0488040148396321  0.5306101515486552  0.2701155104520706
  0.7172994287542612  0.6910109147973175  0.2696734963125706
  0.8814573806227015  0.6902404410402287  0.2695371585818749
  0.0538206422671857  0.6967191800823618  0.2697374758696617
  0.3709141882840669  0.7063323071441937  0.2689613724055988
  0.5618773345783724  0.6896278837331721  0.2695666368882300
  0.3853021515630334  0.5151598655254297  0.2693340082444487
  0.5500465341979992  0.5166151823265542  0.2701785776383004
   0.49084651   0.71496835   0.20493919
  0.3398946040815182  0.5883273667421429  0.2586963183479030
  0.4830080969584286  0.7269032030543227  0.2534308924992303
 
  0.00000000E+00  0.00000000E+00  0.00000000E+00
  0.00000000E+00  0.00000000E+00  0.00000000E+00
  0.00000000E+00  0.00000000E+00  0.00000000E+00
  0.00000000E+00  0.00000000E+00  0.00000000E+00
  0.00000000E+00  0.00000000E+00  0.00000000E+00
  0.00000000E+00  0.00000000E+00  0.00000000E+00
  0.00000000E+00  0.00000000E+00  0.00000000E+00
  0.00000000E+00  0.00000000E+00  0.00000000E+00
  0.00000000E+00  0.00000000E+00  0.00000000E+00
  0.00000000E+00  0.00000000E+00  0.00000000E+00
  0.00000000E+00  0.00000000E+00  0.00000000E+00
  0.00000000E+00  0.00000000E+00  0.00000000E+00
  0.00000000E+00  0.00000000E+00  0.00000000E+00
  0.00000000E+00  0.00000000E+00  0.00000000E+00
  0.00000000E+00  0.00000000E+00  0.00000000E+00
  0.00000000E+00  0.00000000E+00  0.00000000E+00
  0.00000000E+00  0.00000000E+00  0.00000000E+00
  0.00000000E+00  0.00000000E+00  0.00000000E+00
  0.00000000E+00  0.00000000E+00  0.00000000E+00
  0.00000000E+00  0.00000000E+00  0.00000000E+00
  0.00000000E+00  0.00000000E+00  0.00000000E+00
  0.00000000E+00  0.00000000E+00  0.00000000E+00
  0.00000000E+00  0.00000000E+00  0.00000000E+00
  0.00000000E+00  0.00000000E+00  0.00000000E+00
  0.00000000E+00  0.00000000E+00  0.00000000E+00
  0.00000000E+00  0.00000000E+00  0.00000000E+00
  0.00000000E+00  0.00000000E+00  0.00000000E+00
  0.00000000E+00  0.00000000E+00  0.00000000E+00
  0.00000000E+00  0.00000000E+00  0.00000000E+00
  0.00000000E+00  0.00000000E+00  0.00000000E+00
  0.00000000E+00  0.00000000E+00  0.00000000E+00
  0.00000000E+00  0.00000000E+00  0.00000000E+00
  0.00000000E+00  0.00000000E+00  0.00000000E+00
  0.00000000E+00  0.00000000E+00  0.00000000E+00
  0.00000000E+00  0.00000000E+00  0.00000000E+00
  0.00000000E+00  0.00000000E+00  0.00000000E+00
  0.00000000E+00  0.00000000E+00  0.00000000E+00
  0.00000000E+00  0.00000000E+00  0.00000000E+00
  0.00000000E+00  0.00000000E+00  0.00000000E+00
  0.00000000E+00  0.00000000E+00  0.00000000E+00
  0.00000000E+00  0.00000000E+00  0.00000000E+00
  0.00000000E+00  0.00000000E+00  0.00000000E+00
  0.00000000E+00  0.00000000E+00  0.00000000E+00
  0.00000000E+00  0.00000000E+00  0.00000000E+00
  0.00000000E+00  0.00000000E+00  0.00000000E+00
  0.00000000E+00  0.00000000E+00  0.00000000E+00
  0.00000000E+00  0.00000000E+00  0.00000000E+00
  0.00000000E+00  0.00000000E+00  0.00000000E+00
  0.00000000E+00  0.00000000E+00  0.00000000E+00
  0.00000000E+00  0.00000000E+00  0.00000000E+00
  0.00000000E+00  0.00000000E+00  0.00000000E+00
  0.00000000E+00  0.00000000E+00  0.00000000E+00
  0.00000000E+00  0.00000000E+00  0.00000000E+00
  0.00000000E+00  0.00000000E+00  0.00000000E+00
  0.00000000E+00  0.00000000E+00  0.00000000E+00
  0.00000000E+00  0.00000000E+00  0.00000000E+00
  0.00000000E+00  0.00000000E+00  0.00000000E+00
  0.00000000E+00  0.00000000E+00  0.00000000E+00
  0.00000000E+00  0.00000000E+00  0.00000000E+00
  0.00000000E+00  0.00000000E+00  0.00000000E+00
  0.00000000E+00  0.00000000E+00  0.00000000E+00
  0.00000000E+00  0.00000000E+00  0.00000000E+00
  0.00000000E+00  0.00000000E+00  0.00000000E+00
  0.00000000E+00  0.00000000E+00  0.00000000E+00
  0.00000000E+00  0.00000000E+00  0.00000000E+00
  0.00000000E+00  0.00000000E+00  0.00000000E+00
  0.00000000E+00  0.00000000E+00  0.00000000E+00
  0.00000000E+00  0.00000000E+00  0.00000000E+00
  0.00000000E+00  0.00000000E+00  0.00000000E+00
  0.00000000E+00  0.00000000E+00  0.00000000E+00
  0.00000000E+00  0.00000000E+00  0.00000000E+00
  0.00000000E+00  0.00000000E+00  0.00000000E+00
  0.00000000E+00  0.00000000E+00  0.00000000E+00
  0.00000000E+00  0.00000000E+00  0.00000000E+00
  0.00000000E+00  0.00000000E+00  0.00000000E+00
  0.00000000E+00  0.00000000E+00  0.00000000E+00
  0.00000000E+00  0.00000000E+00  0.00000000E+00
  0.00000000E+00  0.00000000E+00  0.00000000E+00
  0.00000000E+00  0.00000000E+00  0.00000000E+00
  0.00000000E+00  0.00000000E+00  0.00000000E+00
  0.00000000E+00  0.00000000E+00  0.00000000E+00
  0.00000000E+00  0.00000000E+00  0.00000000E+00
  0.00000000E+00  0.00000000E+00  0.00000000E+00
  0.00000000E+00  0.00000000E+00  0.00000000E+00
  0.00000000E+00  0.00000000E+00  0.00000000E+00
  0.00000000E+00  0.00000000E+00  0.00000000E+00
  0.00000000E+00  0.00000000E+00  0.00000000E+00
  0.00000000E+00  0.00000000E+00  0.00000000E+00
  0.00000000E+00  0.00000000E+00  0.00000000E+00
  0.00000000E+00  0.00000000E+00  0.00000000E+00
  0.00000000E+00  0.00000000E+00  0.00000000E+00
  0.00000000E+00  0.00000000E+00  0.00000000E+00
  0.00000000E+00  0.00000000E+00  0.00000000E+00
  0.00000000E+00  0.00000000E+00  0.00000000E+00
  0.00000000E+00  0.00000000E+00  0.00000000E+00
  0.00000000E+00  0.00000000E+00  0.00000000E+00
  0.00000000E+00  0.00000000E+00  0.00000000E+00
  0.00000000E+00  0.00000000E+00  0.00000000E+00
  0.00000000E+00  0.00000000E+00  0.00000000E+00
  0.00000000E+00  0.00000000E+00  0.00000000E+00
  0.00000000E+00  0.00000000E+00  0.00000000E+00
  0.00000000E+00  0.00000000E+00  0.00000000E+00
  0.00000000E+00  0.00000000E+00  0.00000000E+00
  0.00000000E+00  0.00000000E+00  0.00000000E+00
  0.00000000E+00  0.00000000E+00  0.00000000E+00
  0.00000000E+00  0.00000000E+00  0.00000000E+00
  0.00000000E+00  0.00000000E+00  0.00000000E+00
  0.00000000E+00  0.00000000E+00  0.00000000E+00
  0.00000000E+00  0.00000000E+00  0.00000000E+00
  0.00000000E+00  0.00000000E+00  0.00000000E+00
  0.00000000E+00  0.00000000E+00  0.00000000E+00
  0.00000000E+00  0.00000000E+00  0.00000000E+00
  0.00000000E+00  0.00000000E+00  0.00000000E+00
  0.00000000E+00  0.00000000E+00  0.00000000E+00
  0.00000000E+00  0.00000000E+00  0.00000000E+00
  0.00000000E+00  0.00000000E+00  0.00000000E+00
  0.00000000E+00  0.00000000E+00  0.00000000E+00
  0.00000000E+00  0.00000000E+00  0.00000000E+00
  0.00000000E+00  0.00000000E+00  0.00000000E+00
  0.00000000E+00  0.00000000E+00  0.00000000E+00
  0.00000000E+00  0.00000000E+00  0.00000000E+00
  0.00000000E+00  0.00000000E+00  0.00000000E+00
  0.00000000E+00  0.00000000E+00  0.00000000E+00
  0.00000000E+00  0.00000000E+00  0.00000000E+00
  0.00000000E+00  0.00000000E+00  0.00000000E+00
  0.00000000E+00  0.00000000E+00  0.00000000E+00
  0.00000000E+00  0.00000000E+00  0.00000000E+00
  0.00000000E+00  0.00000000E+00  0.00000000E+00
  0.00000000E+00  0.00000000E+00  0.00000000E+00
  0.00000000E+00  0.00000000E+00  0.00000000E+00
  0.00000000E+00  0.00000000E+00  0.00000000E+00
  0.00000000E+00  0.00000000E+00  0.00000000E+00
  0.00000000E+00  0.00000000E+00  0.00000000E+00
  0.00000000E+00  0.00000000E+00  0.00000000E+00
  0.00000000E+00  0.00000000E+00  0.00000000E+00
  0.00000000E+00  0.00000000E+00  0.00000000E+00
  0.00000000E+00  0.00000000E+00  0.00000000E+00
  0.00000000E+00  0.00000000E+00  0.00000000E+00
  0.00000000E+00  0.00000000E+00  0.00000000E+00
  0.00000000E+00  0.00000000E+00  0.00000000E+00
  0.00000000E+00  0.00000000E+00  0.00000000E+00
  0.00000000E+00  0.00000000E+00  0.00000000E+00
  0.00000000E+00  0.00000000E+00  0.00000000E+00
  0.00000000E+00  0.00000000E+00  0.00000000E+00
  0.00000000E+00  0.00000000E+00  0.00000000E+00
  0.00000000E+00  0.00000000E+00  0.00000000E+00
  0.00000000E+00  0.00000000E+00  0.00000000E+00
  0.00000000E+00  0.00000000E+00  0.00000000E+00
  0.00000000E+00  0.00000000E+00  0.00000000E+00
  0.00000000E+00  0.00000000E+00  0.00000000E+00
  0.00000000E+00  0.00000000E+00  0.00000000E+00
  0.00000000E+00  0.00000000E+00  0.00000000E+00
  0.00000000E+00  0.00000000E+00  0.00000000E+00
  0.00000000E+00  0.00000000E+00  0.00000000E+00
  0.00000000E+00  0.00000000E+00  0.00000000E+00
  0.00000000E+00  0.00000000E+00  0.00000000E+00
  0.00000000E+00  0.00000000E+00  0.00000000E+00